(set-option :print-success false)
(set-logic QF_UF)
(declare-sort x9 0)
(declare-sort x89 0)
(declare-fun x136 (x89 x89) x89)
(declare-fun x19 () x89)
(declare-fun x132 () x89)
(declare-fun x59 () x89)
(declare-fun x30 () x89)
(declare-fun x44 () x89)
(assert (or (= x59 (x136 (x136 x59 x59) x59)) (or (= (x136 (x136 x132 x132) x132) x132) (or (or (= (x136 (x136 x44 x44) x44) x44) (= (x136 (x136 x19 x19) x19) x19)) (= (x136 (x136 x30 x30) x30) x30)))))
(assert (let ((x50 (x136 x19 x19)) (x137 (x136 x19 x132)) (x60 (x136 x132 x59)) (x92 (x136 x19 x59)) (x18 (x136 x132 x44)) (x112 (x136 x44 x19)) (x154 (x136 x59 x44)) (x158 (x136 x44 x132)) (x83 (x136 x30 x132)) (x87 (x136 x30 x30)) (x115 (x136 x44 x44)) (x85 (x136 x19 x30)) (x125 (x136 x44 x30)) (x46 (x136 x30 x59)) (x55 (x136 x59 x59)) (x142 (x136 x30 x44)) (x95 (x136 x30 x19)) (x120 (x136 x59 x132)) (x31 (x136 x44 x59)) (x37 (x136 x132 x19)) (x17 (x136 x59 x30)) (x68 (x136 x132 x132)) (x135 (x136 x19 x44)) (x43 (x136 x132 x30)) (x15 (x136 x59 x19))) (and (and (and (and (and (not (= x60 x43)) (and (not (= x68 x43)) (and (not (= x60 x18)) (and (not (= x18 x68)) (and (not (= x18 x43)) (and (and (and (not (= x37 x43)) (not (= x18 x37))) (not (= x37 x68))) (not (= x37 x60)))))))) (not (= x68 x60))) (and (and (and (not (= x137 x92)) (and (not (= x85 x92)) (and (and (and (and (not (= x135 x85)) (and (not (= x50 x92)) (and (and (not (= x135 x50)) (not (= x50 x85))) (not (= x137 x50))))) (not (= x135 x137))) (not (= x135 x92))) (not (= x85 x137))))) (and (and (and (and (not (= x31 x115)) (and (not (= x158 x115)) (and (not (= x115 x125)) (and (and (and (not (= x112 x125)) (not (= x112 x115))) (not (= x158 x112))) (not (= x31 x112)))))) (not (= x125 x158))) (not (= x125 x31))) (not (= x158 x31)))) (and (not (= x46 x83)) (and (not (= x46 x87)) (and (and (not (= x142 x46)) (and (and (and (not (= x46 x95)) (and (not (= x95 x83)) (and (not (= x95 x142)) (not (= x95 x87))))) (not (= x142 x87))) (not (= x83 x142)))) (not (= x83 x87))))))) (and (not (= x55 x120)) (and (and (not (= x120 x17)) (and (not (= x154 x55)) (and (not (= x120 x154)) (and (not (= x154 x17)) (and (and (and (not (= x17 x15)) (not (= x15 x154))) (not (= x15 x120))) (not (= x15 x55))))))) (not (= x55 x17))))) (and (and (and (and (not (= x43 x17)) (and (not (= x17 x87)) (and (not (= x43 x87)) (and (not (= x125 x17)) (and (and (and (not (= x17 x85)) (and (and (not (= x85 x87)) (not (= x85 x125))) (not (= x43 x85)))) (not (= x125 x87))) (not (= x125 x43))))))) (and (and (and (and (not (= x37 x95)) (and (not (= x15 x112)) (and (not (= x37 x112)) (and (and (not (= x15 x50)) (and (not (= x37 x50)) (and (not (= x50 x95)) (not (= x50 x112))))) (not (= x112 x95)))))) (not (= x95 x15))) (not (= x37 x15))) (and (not (= x154 x18)) (and (not (= x154 x142)) (and (not (= x18 x142)) (and (not (= x154 x115)) (and (not (= x18 x115)) (and (not (= x142 x115)) (and (and (not (= x18 x135)) (and (not (= x135 x115)) (not (= x142 x135)))) (not (= x154 x135))))))))))) (and (and (and (and (not (= x120 x158)) (and (and (and (and (and (not (= x137 x158)) (not (= x137 x83))) (not (= x68 x137))) (not (= x137 x120))) (not (= x83 x158))) (not (= x158 x68)))) (not (= x83 x68))) (not (= x83 x120))) (not (= x120 x68)))) (and (and (not (= x46 x55)) (and (not (= x60 x46)) (and (and (not (= x60 x31)) (and (and (and (not (= x60 x92)) (and (not (= x92 x31)) (not (= x92 x46)))) (not (= x55 x92))) (not (= x31 x46)))) (not (= x55 x31))))) (not (= x60 x55)))))))
(assert (or (or (and (not (= (x136 x132 (x136 x132 x59)) x59)) (and (and (not (= x30 (x136 x132 (x136 x132 x30)))) (and (not (= x19 (x136 x132 (x136 x132 x19)))) (not (= x44 (x136 x132 (x136 x132 x44)))))) (not (= (x136 x132 (x136 x132 x132)) x132)))) (or (or (and (not (= (x136 x44 (x136 x44 x59)) x59)) (and (not (= x132 (x136 x44 (x136 x44 x132)))) (and (not (= x30 (x136 x44 (x136 x44 x30)))) (and (not (= x19 (x136 x44 (x136 x44 x19)))) (not (= x44 (x136 x44 (x136 x44 x44)))))))) (and (not (= (x136 x19 (x136 x19 x59)) x59)) (and (not (= x132 (x136 x19 (x136 x19 x132)))) (and (and (not (= x19 (x136 x19 (x136 x19 x19)))) (not (= (x136 x19 (x136 x19 x44)) x44))) (not (= (x136 x19 (x136 x19 x30)) x30)))))) (and (not (= x59 (x136 x30 (x136 x30 x59)))) (and (not (= (x136 x30 (x136 x30 x132)) x132)) (and (not (= x30 (x136 x30 (x136 x30 x30)))) (and (not (= x44 (x136 x30 (x136 x30 x44)))) (not (= (x136 x30 (x136 x30 x19)) x19)))))))) (and (not (= x59 (x136 x59 (x136 x59 x59)))) (and (and (and (not (= (x136 x59 (x136 x59 x44)) x44)) (not (= (x136 x59 (x136 x59 x19)) x19))) (not (= (x136 x59 (x136 x59 x30)) x30))) (not (= (x136 x59 (x136 x59 x132)) x132))))))
(assert (or (and (and (not (= x132 (x136 (x136 x132 x59) x59))) (and (not (= (x136 (x136 x30 x59) x59) x30)) (and (not (= (x136 (x136 x44 x59) x59) x44)) (not (= x19 (x136 (x136 x19 x59) x59)))))) (not (= x59 (x136 (x136 x59 x59) x59)))) (or (and (not (= (x136 (x136 x59 x132) x132) x59)) (and (and (not (= (x136 (x136 x30 x132) x132) x30)) (and (not (= x19 (x136 (x136 x19 x132) x132))) (not (= x44 (x136 (x136 x44 x132) x132))))) (not (= x132 (x136 (x136 x132 x132) x132))))) (or (or (and (and (and (and (not (= (x136 (x136 x44 x19) x19) x44)) (not (= (x136 (x136 x19 x19) x19) x19))) (not (= (x136 (x136 x30 x19) x19) x30))) (not (= x132 (x136 (x136 x132 x19) x19)))) (not (= (x136 (x136 x59 x19) x19) x59))) (and (not (= x59 (x136 (x136 x59 x44) x44))) (and (not (= x132 (x136 (x136 x132 x44) x44))) (and (not (= (x136 (x136 x30 x44) x44) x30)) (and (not (= x19 (x136 (x136 x19 x44) x44))) (not (= (x136 (x136 x44 x44) x44) x44))))))) (and (and (not (= (x136 (x136 x132 x30) x30) x132)) (and (and (not (= (x136 (x136 x19 x30) x30) x19)) (not (= x44 (x136 (x136 x44 x30) x30)))) (not (= x30 (x136 (x136 x30 x30) x30))))) (not (= x59 (x136 (x136 x59 x30) x30))))))))
(assert (or (or (and (not (= (x136 x59 (x136 x59 x132)) x59)) (and (and (and (not (= x44 (x136 x44 (x136 x44 x132)))) (not (= (x136 x19 (x136 x19 x132)) x19))) (not (= (x136 x30 (x136 x30 x132)) x30))) (not (= x132 (x136 x132 (x136 x132 x132)))))) (or (and (and (and (not (= (x136 x30 (x136 x30 x30)) x30)) (and (not (= x44 (x136 x44 (x136 x44 x30)))) (not (= x19 (x136 x19 (x136 x19 x30)))))) (not (= x132 (x136 x132 (x136 x132 x30))))) (not (= (x136 x59 (x136 x59 x30)) x59))) (or (and (and (not (= x132 (x136 x132 (x136 x132 x44)))) (and (not (= x30 (x136 x30 (x136 x30 x44)))) (and (not (= x44 (x136 x44 (x136 x44 x44)))) (not (= (x136 x19 (x136 x19 x44)) x19))))) (not (= x59 (x136 x59 (x136 x59 x44))))) (and (and (and (not (= x30 (x136 x30 (x136 x30 x19)))) (and (not (= x44 (x136 x44 (x136 x44 x19)))) (not (= x19 (x136 x19 (x136 x19 x19)))))) (not (= (x136 x132 (x136 x132 x19)) x132))) (not (= x59 (x136 x59 (x136 x59 x19)))))))) (and (and (not (= (x136 x132 (x136 x132 x59)) x132)) (and (not (= x30 (x136 x30 (x136 x30 x59)))) (and (not (= (x136 x19 (x136 x19 x59)) x19)) (not (= x44 (x136 x44 (x136 x44 x59))))))) (not (= x59 (x136 x59 (x136 x59 x59)))))))
(assert (or (and (not (= (x136 x59 (x136 x59 x59)) x59)) (and (and (and (not (= x59 (x136 x19 (x136 x59 x19)))) (not (= (x136 x44 (x136 x59 x44)) x59))) (not (= (x136 x30 (x136 x59 x30)) x59))) (not (= (x136 x132 (x136 x59 x132)) x59)))) (or (or (and (not (= x30 (x136 x59 (x136 x30 x59)))) (and (and (and (not (= x30 (x136 x44 (x136 x30 x44)))) (not (= x30 (x136 x19 (x136 x30 x19))))) (not (= x30 (x136 x30 (x136 x30 x30))))) (not (= (x136 x132 (x136 x30 x132)) x30)))) (or (and (not (= (x136 x59 (x136 x44 x59)) x44)) (and (and (and (not (= x44 (x136 x19 (x136 x44 x19)))) (not (= (x136 x44 (x136 x44 x44)) x44))) (not (= (x136 x30 (x136 x44 x30)) x44))) (not (= x44 (x136 x132 (x136 x44 x132)))))) (and (and (and (not (= (x136 x30 (x136 x19 x30)) x19)) (and (not (= x19 (x136 x44 (x136 x19 x44)))) (not (= x19 (x136 x19 (x136 x19 x19)))))) (not (= (x136 x132 (x136 x19 x132)) x19))) (not (= (x136 x59 (x136 x19 x59)) x19))))) (and (and (not (= x132 (x136 x132 (x136 x132 x132)))) (and (not (= (x136 x30 (x136 x132 x30)) x132)) (and (not (= x132 (x136 x44 (x136 x132 x44)))) (not (= (x136 x19 (x136 x132 x19)) x132))))) (not (= x132 (x136 x59 (x136 x132 x59))))))))
(assert (let ((x112 (x136 x44 x44)) (x37 (x136 x132 x132)) (x95 (x136 x30 x30)) (x50 (x136 x19 x19)) (x15 (x136 x59 x59))) (let ((x17 (= x15 x59)) (x135 (= x50 x19)) (x87 (= x95 x30)) (x142 (= x44 x112)) (x43 (= x132 x37))) (let ((x115 (or (or (or (= x19 x95) (or x135 (= x112 x19))) (= x37 x19)) (= x15 x19))) (x18 (or (= x44 x15) (or (or (or x142 (= x50 x44)) (= x95 x44)) (= x44 x37)))) (x154 (or (= x15 x30) (or (or x87 (or (= x30 x50) (= x112 x30))) (= x37 x30)))) (x85 (or (or x43 (or (or (= x132 x50) (= x132 x112)) (= x132 x95))) (= x132 x15))) (x125 (or (or (or (= x59 x95) (or (= x59 x112) (= x59 x50))) (= x59 x37)) x17))) (and (and (and (and (and (or (not (= x59 (x136 x59 x30))) x154) (and (or (not (= (x136 x59 x44) x59)) x18) (or x115 (not (= (x136 x59 x19) x59))))) (or (not (= x59 (x136 x59 x132))) x85)) (or x125 (not x17))) (and (and (or (not (= x132 (x136 x132 x59))) x125) (and (and (or (not (= x132 (x136 x132 x30))) x154) (and (or (not (= (x136 x132 x44) x132)) x18) (or x115 (not (= x132 (x136 x132 x19)))))) (or (not x43) x85))) (and (and (and (or (not (= x19 (x136 x19 x59))) x125) (and (and (and (or x115 (not x135)) (or (not (= (x136 x19 x44) x19)) x18)) (or x154 (not (= x19 (x136 x19 x30))))) (or (not (= x19 (x136 x19 x132))) x85))) (and (or (not (= x44 (x136 x44 x59))) x125) (and (or x85 (not (= x44 (x136 x44 x132)))) (and (and (or (not (= (x136 x44 x19) x44)) x115) (or x18 (not x142))) (or (not (= (x136 x44 x30) x44)) x154))))) (and (or (not (= x30 (x136 x30 x59))) x125) (and (and (or (not x87) x154) (and (or (not (= (x136 x30 x19) x30)) x115) (or x18 (not (= (x136 x30 x44) x30))))) (or (not (= (x136 x30 x132) x30)) x85)))))) (and (or (= (x136 x59 x15) x59) (or (or (or (= x44 (x136 x44 x15)) (= x19 (x136 x19 x15))) (= x30 (x136 x30 x15))) (= x132 (x136 x132 x15)))) (and (and (and (or (= (x136 x59 x50) x59) (or (or (= (x136 x30 x50) x30) (or (= x19 (x136 x19 x50)) (= (x136 x44 x50) x44))) (= x132 (x136 x132 x50)))) (or (= x59 (x136 x59 x112)) (or (= x132 (x136 x132 x112)) (or (or (= (x136 x19 x112) x19) (= x44 (x136 x44 x112))) (= (x136 x30 x112) x30))))) (or (= x59 (x136 x59 x95)) (or (or (or (= (x136 x19 x95) x19) (= x44 (x136 x44 x95))) (= x30 (x136 x30 x95))) (= (x136 x132 x95) x132)))) (or (or (= (x136 x132 x37) x132) (or (or (= x19 (x136 x19 x37)) (= (x136 x44 x37) x44)) (= (x136 x30 x37) x30))) (= (x136 x59 x37) x59)))))))))
(assert (or (and (and (not (= x59 (x136 (x136 x132 x59) x132))) (and (and (not (= (x136 (x136 x44 x59) x44) x59)) (not (= (x136 (x136 x19 x59) x19) x59))) (not (= x59 (x136 (x136 x30 x59) x30))))) (not (= x59 (x136 (x136 x59 x59) x59)))) (or (and (not (= (x136 (x136 x59 x132) x59) x132)) (and (not (= x132 (x136 (x136 x132 x132) x132))) (and (and (not (= (x136 (x136 x19 x132) x19) x132)) (not (= x132 (x136 (x136 x44 x132) x44)))) (not (= (x136 (x136 x30 x132) x30) x132))))) (or (and (not (= x30 (x136 (x136 x59 x30) x59))) (and (not (= (x136 (x136 x132 x30) x132) x30)) (and (and (not (= x30 (x136 (x136 x44 x30) x44))) (not (= (x136 (x136 x19 x30) x19) x30))) (not (= (x136 (x136 x30 x30) x30) x30))))) (or (and (not (= x19 (x136 (x136 x59 x19) x59))) (and (not (= x19 (x136 (x136 x132 x19) x132))) (and (not (= (x136 (x136 x30 x19) x30) x19)) (and (not (= x19 (x136 (x136 x44 x19) x44))) (not (= (x136 (x136 x19 x19) x19) x19)))))) (and (not (= x44 (x136 (x136 x59 x44) x59))) (and (and (and (not (= x44 (x136 (x136 x44 x44) x44))) (not (= x44 (x136 (x136 x19 x44) x19)))) (not (= (x136 (x136 x30 x44) x30) x44))) (not (= (x136 (x136 x132 x44) x132) x44)))))))))
(assert (and (and (and (not (= x30 (x136 x30 x30))) (and (not (= (x136 x19 x19) x19)) (not (= x44 (x136 x44 x44))))) (not (= (x136 x132 x132) x132))) (not (= x59 (x136 x59 x59)))))
(assert (or (and (not (= x59 (x136 (x136 x59 x59) x59))) (and (and (and (not (= (x136 (x136 x59 x44) x59) x44)) (not (= x19 (x136 (x136 x59 x19) x59)))) (not (= x30 (x136 (x136 x59 x30) x59)))) (not (= x132 (x136 (x136 x59 x132) x59))))) (or (and (and (and (and (not (= x44 (x136 (x136 x132 x44) x132))) (not (= (x136 (x136 x132 x19) x132) x19))) (not (= x30 (x136 (x136 x132 x30) x132)))) (not (= (x136 (x136 x132 x132) x132) x132))) (not (= (x136 (x136 x132 x59) x132) x59))) (or (and (and (and (and (not (= x19 (x136 (x136 x30 x19) x30))) (not (= x44 (x136 (x136 x30 x44) x30)))) (not (= (x136 (x136 x30 x30) x30) x30))) (not (= x132 (x136 (x136 x30 x132) x30)))) (not (= x59 (x136 (x136 x30 x59) x30)))) (or (and (and (and (and (not (= (x136 (x136 x19 x44) x19) x44)) (not (= x19 (x136 (x136 x19 x19) x19)))) (not (= (x136 (x136 x19 x30) x19) x30))) (not (= (x136 (x136 x19 x132) x19) x132))) (not (= x59 (x136 (x136 x19 x59) x19)))) (and (and (not (= (x136 (x136 x44 x132) x44) x132)) (and (and (not (= x44 (x136 (x136 x44 x44) x44))) (not (= (x136 (x136 x44 x19) x44) x19))) (not (= (x136 (x136 x44 x30) x44) x30)))) (not (= (x136 (x136 x44 x59) x44) x59))))))))
(assert (or (and (not (= (x136 x59 x59) x59)) (and (and (not (= x30 (x136 x30 x59))) (and (not (= x19 (x136 x19 x59))) (not (= (x136 x44 x59) x44)))) (not (= x132 (x136 x132 x59))))) (or (or (and (and (and (and (not (= (x136 x44 x30) x44)) (not (= (x136 x19 x30) x19))) (not (= x30 (x136 x30 x30)))) (not (= (x136 x132 x30) x132))) (not (= (x136 x59 x30) x59))) (or (and (and (and (not (= (x136 x30 x19) x30)) (and (not (= x44 (x136 x44 x19))) (not (= x19 (x136 x19 x19))))) (not (= x132 (x136 x132 x19)))) (not (= x59 (x136 x59 x19)))) (and (not (= (x136 x59 x44) x59)) (and (and (not (= (x136 x30 x44) x30)) (and (not (= (x136 x19 x44) x19)) (not (= (x136 x44 x44) x44)))) (not (= x132 (x136 x132 x44))))))) (and (not (= x59 (x136 x59 x132))) (and (and (and (not (= (x136 x44 x132) x44)) (not (= (x136 x19 x132) x19))) (not (= x30 (x136 x30 x132)))) (not (= (x136 x132 x132) x132)))))))
(assert (let ((x2 (x136 x44 x44)) (x103 (x136 x132 x44)) (x138 (x136 x132 x30)) (x143 (x136 x19 x44)) (x144 (x136 x19 x19)) (x118 (x136 x59 x132)) (x134 (x136 x30 x19)) (x110 (x136 x44 x132)) (x34 (x136 x30 x132)) (x100 (x136 x59 x19)) (x20 (x136 x30 x59)) (x93 (x136 x44 x59)) (x76 (x136 x59 x30)) (x126 (x136 x30 x30)) (x36 (x136 x59 x59)) (x109 (x136 x132 x59)) (x151 (x136 x19 x30)) (x28 (x136 x44 x30)) (x53 (x136 x132 x132)) (x148 (x136 x30 x44)) (x63 (x136 x19 x132)) (x33 (x136 x44 x19)) (x121 (x136 x59 x44)) (x25 (x136 x19 x59)) (x24 (x136 x132 x19))) (let ((x15 (not (= x19 x134))) (x87 (not (= x19 x110))) (x79 (not (= x100 x59))) (x104 (not (= x44 x28))) (x130 (not (= x33 x44))) (x91 (not (= x30 x76))) (x112 (not (= x33 x19))) (x46 (not (= x19 x118))) (x43 (not (= x138 x19))) (x6 (not (= x63 x132))) (x105 (not (= x2 x44))) (x12 (not (= x30 x36))) (x71 (not (= x76 x132))) (x149 (not (= x44 x25))) (x92 (not (= x76 x19))) (x40 (not (= x34 x44))) (x157 (not (= x44 x24))) (x31 (not (= x20 x19))) (x49 (not (= x28 x30))) (x38 (not (= x44 x144))) (x145 (not (= x30 x25))) (x96 (not (= x30 x138))) (x23 (not (= x151 x132))) (x124 (not (= x2 x132))) (x51 (not (= x118 x59))) (x125 (not (= x103 x19))) (x133 (not (= x44 x53))) (x101 (not (= x134 x30))) (x54 (not (= x126 x30))) (x74 (not (= x138 x132))) (x47 (not (= x144 x59))) (x142 (not (= x28 x19))) (x50 (not (= x144 x19))) (x158 (not (= x19 x100))) (x1 (not (= x103 x30))) (x129 (not (= x30 x93))) (x56 (not (= x30 x20))) (x26 (not (= x44 x138))) (x123 (not (= x144 x30))) (x84 (not (= x2 x59))) (x127 (not (= x33 x30))) (x67 (not (= x144 x132))) (x85 (not (= x19 x63))) (x73 (not (= x63 x30))) (x114 (not (= x132 x121))) (x16 (not (= x24 x59))) (x18 (not (= x126 x19))) (x64 (not (= x132 x93))) (x141 (not (= x121 x44))) (x13 (not (= x36 x44))) (x131 (not (= x30 x143))) (x90 (not (= x109 x132))) (x48 (not (= x25 x59))) (x152 (not (= x28 x132))) (x55 (not (= x19 x36))) (x140 (not (= x109 x30))) (x65 (not (= x151 x59))) (x35 (not (= x30 x53))) (x27 (not (= x103 x44))) (x108 (not (= x30 x148))) (x111 (not (= x44 x100))) (x5 (not (= x44 x110))) (x156 (not (= x132 x148))) (x94 (not (= x59 x33))) (x122 (not (= x30 x100))) (x77 (not (= x148 x44))) (x68 (not (= x19 x121))) (x147 (not (= x63 x59))) (x137 (not (= x19 x53))) (x22 (not (= x30 x2))) (x7 (not (= x59 x93))) (x98 (not (= x132 x126))) (x57 (not (= x59 x28))) (x97 (not (= x148 x59))) (x78 (not (= x103 x59))) (x10 (not (= x59 x36))) (x4 (not (= x59 x143))) (x106 (not (= x132 x36))) (x135 (not (= x151 x19))) (x128 (not (= x132 x118))) (x88 (not (= x24 x132))) (x99 (not (= x132 x34))) (x58 (not (= x121 x59))) (x113 (not (= x118 x30))) (x80 (not (= x59 x134))) (x119 (not (= x100 x132))) (x107 (not (= x44 x20))) (x62 (not (= x110 x132))) (x116 (not (= x20 x59))) (x70 (not (= x44 x126))) (x42 (not (= x132 x143))) (x72 (not (= x44 x93))) (x83 (not (= x19 x25))) (x61 (not (= x151 x30))) (x39 (not (= x30 x121))) (x14 (not (= x151 x44))) (x75 (not (= x63 x44))) (x3 (not (= x53 x132))) (x102 (not (= x59 x76))) (x17 (not (= x34 x19))) (x146 (not (= x118 x44))) (x45 (not (= x30 x34))) (x69 (not (= x134 x44))) (x29 (not (= x30 x24))) (x8 (not (= x138 x59))) (x150 (not (= x25 x132))) (x154 (not (= x19 x24))) (x60 (not (= x19 x109))) (x155 (not (= x132 x103))) (x86 (not (= x59 x126))) (x82 (not (= x44 x76))) (x81 (not (= x110 x59))) (x120 (not (= x19 x93))) (x52 (not (= x44 x143))) (x41 (not (= x110 x30))) (x95 (not (= x19 x143))) (x21 (not (= x20 x132))) (x139 (not (= x44 x109))) (x115 (not (= x19 x148))) (x37 (not (= x19 x2))) (x66 (not (= x59 x53))) (x117 (not (= x109 x59))) (x153 (not (= x132 x134))) (x32 (not (= x34 x59))) (x11 (not (= x132 x33)))) (or (and (and (and (or x51 x117) (and (or x102 x116) (and (or x79 x48) (or x7 x58)))) (or x10 x10)) (and (and (and (and (or x32 x8) (and (and (or x80 x65) (or x97 x57)) (or x86 x86))) (or x102 x116)) (and (and (or x79 x48) (and (and (and (or x47 x47) (or x4 x94)) (or x80 x65)) (or x16 x147))) (and (or x7 x58) (and (or x81 x78) (and (and (or x94 x4) (or x84 x84)) (or x57 x97)))))) (and (or x51 x117) (and (or x66 x66) (and (and (or x81 x78) (or x147 x16)) (or x8 x32)))))) (or (or (or (and (and (and (or x60 x46) (and (and (or x43 x17) (and (or x125 x87) (or x85 x154))) (or x137 x137))) (and (and (and (or x83 x158) (and (and (and (or x50 x50) (or x112 x95)) (or x15 x135)) (or x154 x85))) (and (and (and (or x115 x142) (and (or x37 x37) (or x95 x112))) (or x87 x125)) (or x68 x120))) (and (and (or x43 x17) (and (and (or x115 x142) (or x15 x135)) (or x18 x18))) (or x31 x92)))) (and (or x55 x55) (and (and (or x31 x92) (and (or x158 x83) (or x68 x120))) (or x60 x46)))) (and (and (and (and (and (and (or x157 x75) (and (and (or x38 x38) (or x130 x52)) (or x14 x69))) (or x149 x111)) (and (and (and (and (or x105 x105) (or x52 x130)) (or x77 x104)) (or x5 x27)) (or x141 x72))) (and (or x82 x107) (and (and (or x70 x70) (and (or x69 x14) (or x77 x104))) (or x26 x40)))) (and (or x139 x146) (and (and (or x26 x40) (and (or x5 x27) (or x157 x75))) (or x133 x133)))) (and (or x13 x13) (and (and (or x82 x107) (and (or x141 x72) (or x111 x149))) (or x139 x146))))) (and (and (and (or x113 x140) (and (or x56 x91) (and (or x145 x122) (or x39 x129)))) (or x12 x12)) (and (and (and (or x56 x91) (and (and (and (or x49 x108) (or x101 x61)) (or x54 x54)) (or x45 x96))) (and (and (or x122 x145) (and (and (or x61 x101) (and (or x127 x131) (or x123 x123))) (or x73 x29))) (and (or x129 x39) (and (or x41 x1) (and (and (or x22 x22) (or x127 x131)) (or x49 x108)))))) (and (or x113 x140) (and (and (and (or x73 x29) (or x41 x1)) (or x96 x45)) (or x35 x35)))))) (and (and (and (or x128 x90) (and (or x3 x3) (and (or x99 x74) (and (or x62 x155) (or x6 x88))))) (and (and (and (and (or x155 x62) (and (and (or x11 x42) (or x124 x124)) (or x152 x156))) (or x64 x114)) (and (and (or x88 x6) (and (and (or x42 x11) (or x67 x67)) (or x153 x23))) (or x119 x150))) (and (or x71 x21) (and (or x74 x99) (and (or x98 x98) (and (or x23 x153) (or x156 x152))))))) (and (and (and (or x21 x71) (and (or x64 x114) (or x150 x119))) (or x90 x128)) (or x106 x106))))))))
(assert (let ((x125 (x136 x30 x44)) (x83 (x136 x132 x30)) (x142 (x136 x44 x30)) (x158 (x136 x132 x44)) (x120 (x136 x132 x59)) (x15 (x136 x19 x59)) (x154 (x136 x44 x59)) (x87 (x136 x30 x30)) (x92 (x136 x59 x19)) (x85 (x136 x30 x19)) (x37 (x136 x19 x132)) (x43 (x136 x30 x132)) (x68 (x136 x132 x132)) (x31 (x136 x59 x44)) (x137 (x136 x132 x19)) (x60 (x136 x59 x132)) (x17 (x136 x30 x59)) (x50 (x136 x19 x19)) (x135 (x136 x44 x19)) (x18 (x136 x44 x132)) (x46 (x136 x59 x30)) (x95 (x136 x19 x30)) (x115 (x136 x44 x44)) (x112 (x136 x19 x44)) (x55 (x136 x59 x59))) (and (and (and (and (and (and (and (and (or (or (or (= x50 x30) (or (= x50 x44) (= x50 x19))) (= x132 x50)) (= x50 x59)) (or (= x112 x59) (or (= x132 x112) (or (= x112 x30) (or (= x112 x19) (= x44 x112)))))) (or (or (or (= x95 x30) (or (= x95 x44) (= x19 x95))) (= x132 x95)) (= x59 x95))) (or (or (or (= x30 x37) (or (= x37 x19) (= x37 x44))) (= x37 x132)) (= x37 x59))) (or (= x15 x59) (or (or (= x30 x15) (or (= x44 x15) (= x19 x15))) (= x15 x132)))) (and (or (= x154 x59) (or (= x132 x154) (or (or (= x154 x44) (= x154 x19)) (= x30 x154)))) (and (and (or (or (= x132 x142) (or (= x30 x142) (or (= x142 x44) (= x19 x142)))) (= x59 x142)) (and (or (= x59 x115) (or (= x132 x115) (or (= x30 x115) (or (= x115 x19) (= x115 x44))))) (or (= x135 x59) (or (= x135 x132) (or (= x135 x30) (or (= x135 x19) (= x44 x135))))))) (or (or (= x132 x18) (or (= x30 x18) (or (= x44 x18) (= x19 x18)))) (= x18 x59))))) (and (or (or (or (= x30 x17) (or (= x19 x17) (= x17 x44))) (= x17 x132)) (= x59 x17)) (and (or (= x43 x59) (or (= x132 x43) (or (= x43 x30) (or (= x44 x43) (= x19 x43))))) (and (or (or (= x132 x87) (or (or (= x87 x44) (= x19 x87)) (= x87 x30))) (= x87 x59)) (and (or (or (or (or (= x125 x44) (= x125 x19)) (= x30 x125)) (= x125 x132)) (= x59 x125)) (or (= x59 x85) (or (or (= x85 x30) (or (= x44 x85) (= x85 x19))) (= x132 x85)))))))) (and (and (and (and (or (or (= x132 x158) (or (= x30 x158) (or (= x158 x19) (= x44 x158)))) (= x158 x59)) (or (or (= x132 x137) (or (= x137 x30) (or (= x137 x19) (= x137 x44)))) (= x59 x137))) (or (= x83 x59) (or (= x83 x132) (or (or (= x83 x44) (= x19 x83)) (= x30 x83))))) (or (= x68 x59) (or (or (or (= x68 x44) (= x68 x19)) (= x30 x68)) (= x68 x132)))) (or (= x120 x59) (or (or (= x30 x120) (or (= x120 x19) (= x44 x120))) (= x132 x120))))) (and (and (and (or (or (or (= x30 x46) (or (= x44 x46) (= x19 x46))) (= x132 x46)) (= x59 x46)) (and (or (or (= x132 x92) (or (= x92 x30) (or (= x92 x19) (= x92 x44)))) (= x59 x92)) (or (or (= x132 x31) (or (or (= x31 x19) (= x44 x31)) (= x30 x31))) (= x59 x31)))) (or (= x60 x59) (or (= x132 x60) (or (= x60 x30) (or (= x44 x60) (= x19 x60)))))) (or (= x55 x59) (or (or (or (= x44 x55) (= x55 x19)) (= x55 x30)) (= x132 x55)))))))
(assert (let ((x50 (x136 x19 (x136 x19 x19))) (x112 (x136 x44 (x136 x44 x44))) (x15 (x136 x59 (x136 x59 x59))) (x37 (x136 x132 (x136 x132 x132))) (x95 (x136 x30 (x136 x30 x30)))) (or (or (and (not (= x132 x15)) (and (and (and (not (= x132 x112)) (not (= x132 x50))) (not (= x132 x95))) (not (= x37 x132)))) (or (or (and (not (= x44 x15)) (and (and (and (not (= x112 x44)) (not (= x50 x44))) (not (= x44 x95))) (not (= x44 x37)))) (and (not (= x19 x15)) (and (not (= x19 x37)) (and (not (= x95 x19)) (and (not (= x19 x50)) (not (= x112 x19))))))) (and (and (not (= x37 x30)) (and (and (not (= x30 x50)) (not (= x30 x112))) (not (= x30 x95)))) (not (= x15 x30))))) (and (and (and (not (= x95 x59)) (and (not (= x50 x59)) (not (= x59 x112)))) (not (= x37 x59))) (not (= x59 x15))))))
(assert (let ((x37 (not (= x44 (x136 x44 x44)))) (x18 (not (= (x136 x30 x30) x30))) (x95 (not (= x19 (x136 x19 x44)))) (x50 (not (= x19 (x136 x19 x19)))) (x31 (not (= x30 (x136 x30 x59)))) (x137 (not (= (x136 x132 x132) x132))) (x120 (not (= (x136 x44 x59) x44))) (x83 (not (= (x136 x19 x59) x19))) (x92 (not (= (x136 x59 x30) x59))) (x46 (not (= x59 (x136 x59 x132)))) (x154 (not (= (x136 x132 x19) x132))) (x115 (not (= x30 (x136 x30 x44)))) (x17 (not (= (x136 x30 x132) x30))) (x85 (not (= x19 (x136 x19 x132)))) (x158 (not (= x59 (x136 x59 x19)))) (x125 (not (= (x136 x132 x44) x132))) (x55 (not (= x59 (x136 x59 x59)))) (x15 (not (= (x136 x30 x19) x30))) (x135 (not (= x19 (x136 x19 x30)))) (x43 (not (= (x136 x132 x30) x132))) (x112 (not (= (x136 x44 x19) x44))) (x60 (not (= x132 (x136 x132 x59)))) (x142 (not (= (x136 x44 x30) x44))) (x68 (not (= (x136 x59 x44) x59))) (x87 (not (= x44 (x136 x44 x132))))) (and (and (or x55 x55) (and (or x60 x46) (and (or x31 x92) (and (or x68 x120) (or x83 x158))))) (and (and (and (and (or x43 x17) (and (or x18 x18) (and (or x115 x142) (or x135 x15)))) (or x92 x31)) (and (and (or x83 x158) (and (or x85 x154) (and (and (or x112 x95) (or x50 x50)) (or x135 x15)))) (and (and (and (or x115 x142) (and (or x37 x37) (or x112 x95))) (or x87 x125)) (or x120 x68)))) (and (and (and (or x17 x43) (and (or x85 x154) (or x125 x87))) (or x137 x137)) (or x46 x60))))))
(assert (let ((x37 (x136 x132 x132)) (x15 (x136 x59 x59)) (x95 (x136 x30 x30)) (x112 (x136 x44 x44)) (x50 (x136 x19 x19))) (or (and (not (= x59 x15)) (and (not (= x37 x59)) (and (and (not (= x50 x59)) (not (= x59 x112))) (not (= x59 x95))))) (or (or (and (not (= x30 x15)) (and (and (and (not (= x30 x50)) (not (= x112 x30))) (not (= x30 x95))) (not (= x30 x37)))) (or (and (not (= x15 x44)) (and (and (not (= x95 x44)) (and (not (= x112 x44)) (not (= x44 x50)))) (not (= x37 x44)))) (and (and (and (not (= x19 x95)) (and (not (= x19 x50)) (not (= x112 x19)))) (not (= x37 x19))) (not (= x19 x15))))) (and (not (= x132 x15)) (and (not (= x37 x132)) (and (not (= x132 x95)) (and (not (= x50 x132)) (not (= x132 x112))))))))))
(assert (and (not (= x132 x59)) (and (and (not (= x132 x30)) (and (and (not (= x132 x44)) (and (and (and (and (not (= x19 x44)) (not (= x19 x30))) (not (= x19 x132))) (not (= x19 x59))) (not (= x30 x44)))) (not (= x44 x59)))) (not (= x30 x59)))))
(assert (or (or (or (or (= x19 (x136 x19 (x136 x19 x19))) (= x44 (x136 x44 (x136 x44 x44)))) (= (x136 x30 (x136 x30 x30)) x30)) (= (x136 x132 (x136 x132 x132)) x132)) (= x59 (x136 x59 (x136 x59 x59)))))
(assert (let ((x31 (x136 x44 x59)) (x38 (x136 x59 x44)) (x49 (x136 x59 x132)) (x150 (x136 x59 x59)) (x15 (x136 x19 x132)) (x135 (x136 x19 x59)) (x93 (x136 x30 x30)) (x18 (x136 x30 x19)) (x95 (x136 x19 x44)) (x120 (x136 x44 x30)) (x112 (x136 x19 x19)) (x92 (x136 x44 x132)) (x37 (x136 x19 x30)) (x154 (x136 x132 x19)) (x127 (x136 x132 x132)) (x131 (x136 x132 x59)) (x126 (x136 x132 x30)) (x70 (x136 x59 x30)) (x69 (x136 x30 x59)) (x142 (x136 x44 x19)) (x85 (x136 x59 x19)) (x144 (x136 x132 x44)) (x68 (x136 x44 x44)) (x121 (x136 x30 x132)) (x55 (x136 x30 x44))) (let ((x24 (= x132 x68)) (x42 (= x59 x121)) (x40 (= x132 x93)) (x100 (= x59 x95)) (x137 (= x95 x19)) (x79 (= x85 x59)) (x84 (= x31 x30)) (x28 (= x19 x120)) (x34 (= x18 x30)) (x141 (= x144 x19)) (x81 (= x31 x132)) (x128 (= x44 x150)) (x155 (= x19 x131)) (x80 (= x69 x30)) (x36 (= x154 x44)) (x26 (= x132 x120)) (x91 (= x132 x121)) (x16 (= x132 x70)) (x124 (= x59 x127)) (x65 (= x30 x131)) (x108 (= x44 x127)) (x104 (= x44 x93)) (x11 (= x59 x92)) (x8 (= x132 x69)) (x77 (= x120 x44)) (x61 (= x121 x44)) (x119 (= x44 x49)) (x64 (= x44 x31)) (x41 (= x92 x30)) (x60 (= x68 x44)) (x82 (= x15 x19)) (x6 (= x69 x19)) (x151 (= x30 x68)) (x129 (= x92 x132)) (x122 (= x144 x132)) (x78 (= x135 x132)) (x133 (= x55 x59)) (x72 (= x19 x126)) (x105 (= x37 x19)) (x3 (= x44 x70)) (x146 (= x121 x19)) (x21 (= x131 x44)) (x50 (= x19 x112)) (x99 (= x38 x44)) (x117 (= x131 x59)) (x114 (= x135 x44)) (x62 (= x19 x150)) (x52 (= x19 x18)) (x27 (= x132 x55)) (x48 (= x38 x59)) (x118 (= x120 x59)) (x71 (= x44 x69)) (x20 (= x30 x37)) (x111 (= x93 x59)) (x73 (= x30 x126)) (x45 (= x127 x30)) (x56 (= x132 x127)) (x17 (= x142 x19)) (x39 (= x132 x15)) (x96 (= x121 x30)) (x158 (= x68 x19)) (x156 (= x70 x19)) (x76 (= x120 x30)) (x74 (= x85 x44)) (x2 (= x55 x19)) (x33 (= x95 x30)) (x139 (= x19 x127)) (x29 (= x144 x30)) (x125 (= x112 x30)) (x116 (= x31 x59)) (x109 (= x37 x59)) (x66 (= x132 x150)) (x87 (= x132 x112)) (x1 (= x15 x30)) (x153 (= x19 x85)) (x35 (= x154 x132)) (x106 (= x30 x38)) (x152 (= x49 x19)) (x46 (= x44 x95)) (x107 (= x19 x92)) (x13 (= x144 x44)) (x145 (= x132 x126)) (x143 (= x30 x142)) (x54 (= x30 x154)) (x86 (= x38 x132)) (x12 (= x126 x59)) (x43 (= x59 x112)) (x23 (= x19 x38)) (x113 (= x59 x154)) (x94 (= x49 x30)) (x51 (= x59 x69)) (x57 (= x132 x85)) (x103 (= x44 x55)) (x4 (= x30 x135)) (x110 (= x18 x44)) (x148 (= x93 x19)) (x102 (= x135 x59)) (x14 (= x37 x44)) (x75 (= x18 x132)) (x115 (= x44 x112)) (x88 (= x31 x19)) (x5 (= x37 x132)) (x25 (= x59 x142)) (x98 (= x19 x135)) (x157 (= x93 x30)) (x140 (= x59 x144)) (x123 (= x44 x126)) (x22 (= x15 x44)) (x147 (= x49 x132)) (x10 (= x59 x150)) (x7 (= x59 x49)) (x97 (= x150 x30)) (x134 (= x132 x142)) (x90 (= x30 x85)) (x47 (= x30 x70)) (x32 (= x132 x131)) (x83 (= x44 x142)) (x138 (= x55 x30)) (x130 (= x68 x59)) (x58 (= x59 x70)) (x53 (= x18 x59)) (x149 (= x19 x154)) (x67 (= x15 x59)) (x101 (= x92 x44)) (x63 (= x95 x132))) (and (and (and (and (and (and (and (or (or (or x75 (or x134 x87)) x35) x57) (or (or (or x5 (or x63 x87)) x39) x78)) (and (and (or (or x1 (or (or x33 x125) x20)) x4) (or (or x54 (or (or x125 x143) x34)) x90)) (and (and (or x114 (or x22 (or (or x115 x46) x14))) (or (or (or (or x115 x83) x110) x36) x74)) (and (or (or x149 (or x52 (or x17 x50))) x153) (or (or x82 (or (or x137 x50) x105)) x98))))) (and (or (or (or x109 (or x43 x100)) x67) x102) (or (or x113 (or (or x25 x43) x53)) x79))) (and (and (or (or x11 (or x118 (or x130 x25))) x116) (or (or (or (or x100 x130) x133) x140) x48)) (and (and (and (or (or x29 (or (or x151 x33) x138)) x106) (or (or (or (or x151 x143) x76) x41) x84)) (and (and (or (or (or x2 (or x137 x158)) x141) x23) (or (or (or x28 (or x17 x158)) x107) x88)) (and (or x64 (or x101 (or x77 (or x60 x83)))) (or x99 (or (or x103 (or x60 x46)) x13))))) (and (or x81 (or x129 (or (or x134 x24) x26))) (or x86 (or (or (or x24 x63) x27) x122)))))) (and (and (or (or (or x111 (or x118 x109)) x12) x58) (or (or x42 (or (or x133 x53) x111)) x51)) (and (and (and (and (or (or x123 (or (or x14 x77) x104)) x3) (or (or (or x104 (or x110 x103)) x61) x71)) (and (or x156 (or (or (or x105 x28) x148) x72)) (or (or (or (or x2 x52) x148) x146) x6))) (and (or x80 (or (or (or x138 x34) x157) x96)) (or (or x73 (or (or x20 x76) x157)) x47))) (and (or (or (or (or x5 x26) x40) x145) x16) (or (or (or x40 (or x75 x27)) x91) x8))))) (and (and (or (or (or x12 (or x140 x113)) x124) x117) (or x7 (or x124 (or (or x67 x11) x42)))) (and (and (and (or x65 (or x45 (or x73 (or x29 x54)))) (or (or (or x96 (or x1 x41)) x45) x94)) (and (and (or x21 (or x108 (or (or x36 x13) x123))) (or (or x108 (or x61 (or x101 x22))) x119)) (and (or x155 (or x139 (or x72 (or x149 x141)))) (or x152 (or (or x146 (or x82 x107)) x139))))) (and (or (or (or x145 (or x122 x35)) x56) x32) (or x147 (or x56 (or x91 (or x39 x129)))))))) (and (and (or x10 (or (or (or x116 x102) x51) x117)) (or x10 (or x7 (or (or x79 x48) x58)))) (and (and (or (or (or (or x57 x86) x16) x147) x66) (or x66 (or x32 (or (or x78 x81) x8)))) (and (and (or x97 (or (or (or x84 x4) x80) x65)) (or (or (or (or x106 x90) x47) x94) x97)) (and (and (or x62 (or (or (or x98 x88) x6) x155)) (or x62 (or (or x156 (or x23 x153)) x152))) (and (or (or (or (or x64 x114) x71) x21) x128) (or (or x119 (or x3 (or x74 x99))) x128))))))))))
(assert (let ((x112 (x136 x44 x44)) (x95 (x136 x30 x30)) (x37 (x136 x132 x132)) (x15 (x136 x59 x59)) (x50 (x136 x19 x19))) (and (not (= (x136 x15 x15) x59)) (and (not (= (x136 x37 x37) x132)) (and (and (not (= x19 (x136 x50 x50))) (not (= x44 (x136 x112 x112)))) (not (= (x136 x95 x95) x30)))))))
(check-sat)
(exit)
